Traveling Salesman Problem/TSP_generados/Aleatorio1620390952_10.tsp
NAME: Aleatorio1620390952_10.tsp
COMMENT: Randomly generated scenario
TYPE: TSP
DIMENSION: 10
EDGE_WEIGHT_TYPE: ATT
NODE_COORD_SECTION
1 11.22 49.09
2 13.14 16.75
3 2.04 11.36
4 28.19 26.43
5 43.69 39.16
6 46.22 45.23
7 38.88 28.53
8 1.07 24.69
9 24.01 15.95
10 29.88 8.62
