Traveling Salesman Problem/TSP_generados/Aleatorio1620390952_10.opt.tour
NAME: Aleatorio1620390952_10.opt.tour
COMMENT: Optimal solution for Aleatorio1620390952_10 (154.66203960617597)
TYPE: TOUR
DIMENSION: 10
TOUR_SECTION
1 6 5 7 4 10 9 2 3 8
-1
EOF
